nApps = 95
nRes = 6
nActs = 190
nNetworks = 4

assignmentToResources = [2,1,1,2,1,1,2,2,2,1,2,2,2,1,2,1,1,2,2,1,2,2,1,2,1,1,1,2,1,1,1,1,1,1,2,1,2,1,1,2,2,1,1,2,1,1,2,2,1,2,4,4,4,3,4,3,3,3,4,4,4,4,3,4,4,4,4,4,4,4,4,4,4,4,4,3,4,4,4,4,4,4,3,3,4,3,3,3,4,4,3,3,3,3,4,3,3,3,3,4,3,3,4,4,4,4,4,4,4,4,5,3,6,4,5,3,6,4,5,4,5,3,6,4,5,3,6,4,5,4,5,5,5,5,6,5,6,6,6,5,5,5,5,6,5,5,5,5,5,5,5,5,5,5,5,5,6,5,5,5,5,5,5,6,6,5,6,6,6,5,5,6,6,6,6,5,6,6,6,6,5,6,6,5,5,5,5,5,5,5];

processingTimes = [88,144,104,136,48,152,112,104,88,136,112,88,112,128,80,136,72,120,88,128,136,104,144,144,152,128,144,48,120,64,136,144,112,136,136,96,80,48,144,120,56,104,128,128,120,152,56,88,112,152,4,1000,3,4,23,4,4,4,3,3,3,3,4,1000,5,5,1000,4,3,1000,1000,5,5,3,3,3,4,3,1000,1000,3,4,1500,4,300,5,4,4,4,4,3,3,5,1500,4,5000,4,4,5,1000,5000,4,5,4,4,4,1000,3,4,3,3,16,16,4,4,4,4,4,4,4,4,11,11,11,11,8,8,1000,1000,4,4,4,1000,3,4,23,4,4,4,3,3,3,3,4,1000,5,5,1000,4,3,1000,1000,5,5,3,3,3,4,3,1000,1000,3,4,1500,4,300,5,4,4,4,4,3,3,5,1500,4,5000,4,4,5,1000,5000,4,5,4,4,4,1000,3,4];

periods = [100000,10000,10000,10000,100000,10000,10000,20000,50000,100000,10000,20000,20000,100000,20000,100000,20000,100000,20000,20000,100000,20000,10000,2000,10000,10000,20000,10000,20000,100000,10000,10000,20000,10000,10000,100000,20000,100000,100000,20000,20000,100000,20000,100000,100000,10000,10000,10000,20000,100000,100000,100000,100000,10000,10000,10000,10000,10000,20000,50000,50000,50000,100000,10000,20000,20000,20000,20000,20000,20000,20000,100000,100000,100000,20000,20000,100000,100000,100000,100000,20000,20000,10000,10000,2000,10000,20000,20000,10000,10000,20000,100000,100000,10000,10000,100000,100000,100000,100000,20000,100000,10000,10000,10000,10000,10000,10000,10000,100000,10000,10000,10000,10000,10000,10000,100000,100000,100000,100000,10000,10000,10000,10000,10000,10000,20000,20000,100000,100000,20000,20000,100000,100000,100000,10000,10000,10000,10000,10000,20000,50000,50000,50000,100000,10000,20000,20000,20000,20000,20000,20000,20000,100000,100000,100000,20000,20000,100000,100000,100000,100000,20000,20000,10000,10000,2000,10000,20000,20000,10000,10000,20000,100000,100000,10000,10000,100000,100000,100000,100000,20000,100000,10000,10000,10000,10000,10000,10000,10000,100000];

assignmentToClusters = [1,2,2,3,4,5,2,6,7,8,9,10,11,4,10,12,13,14,15,16,17,18,19,20,9,21,22,9,23,24,25,26,27,9,2,12,28,29,30,11,31,32,31,33,14,34,35,36,11,4,37,38,39,40,41,42,43,44,45,46,47,48,49,50,51,52,53,54,55,56,57,58,59,60,61,62,63,64,65,66,67,68,69,70,71,72,73,74,75,76,77,78,79,80,81,82,83,84,85,86,87,88,89,90,91,92,93,94,95,2,2,2,2,2,2,4,4,4,4,9,9,9,9,9,9,11,11,14,14,31,31,37,38,39,40,41,42,43,44,45,46,47,48,49,50,51,52,53,54,55,56,57,58,59,60,61,62,63,64,65,66,67,68,69,70,71,72,73,74,75,76,77,78,79,80,81,82,83,84,85,86,87,88,89,90,91,92,93,94,95];

precedenceAdjList = [[],[110],[114],[],[],[],[],[],[],[],[],[14],[126],[118],[],[],[],[],[],[],[],[],[],[],[120],[],[],[122],[],[],[],[],[],[124],[112],[15],[],[],[],[12],[],[],[130],[],[128],[],[],[],[],[116],[],[],[],[],[],[],[],[],[],[],[],[],[],[],[],[],[],[],[],[],[],[],[],[],[],[],[],[],[],[],[],[],[],[],[],[],[],[],[],[],[],[],[],[],[],[],[],[],[],[],[],[],[],[],[],[],[],[],[],[6],[109],[1],[111],[34],[113],[4],[115],[49],[117],[10],[119],[24],[121],[27],[123],[48],[125],[17],[127],[40],[129],[50],[51],[52],[53],[54],[55],[56],[57],[58],[59],[60],[61],[62],[63],[64],[65],[66],[67],[68],[69],[70],[71],[72],[73],[74],[75],[76],[77],[78],[79],[80],[81],[82],[83],[84],[85],[86],[87],[88],[89],[90],[91],[92],[93],[94],[95],[96],[97],[98],[99],[100],[101],[102],[103],[104],[105],[106],[107],[108]];